12 66
1 2 2
1 3 5
1 4 5
1 5 3
1 6 5
1 7 2
1 8 5
1 9 4
1 10 5
1 11 1
1 12 4
2 3 5
2 4 4
2 5 4
2 6 5
2 7 5
2 8 3
2 9 2
2 10 2
2 11 5
2 12 3
3 4 4
3 5 4
3 6 3
3 7 5
3 8 5
3 9 5
3 10 5
3 11 4
3 12 1
4 5 4
4 6 3
4 7 2
4 8 3
4 9 2
4 10 3
4 11 1
4 12 1
5 6 3
5 7 4
5 8 5
5 9 3
5 10 3
5 11 1
5 12 3
6 7 4
6 8 2
6 9 5
6 10 4
6 11 2
6 12 4
7 8 5
7 9 5
7 10 3
7 11 4
7 12 1
8 9 3
8 10 5
8 11 5
8 12 5
9 10 1
9 11 5
9 12 5
10 11 3
10 12 2
11 12 5
